Optimal - objective value 1066.18542800
     33 x34                    1               14.543767
     74 x75                    1         0.499872590201058
     87 x88                    1         2.77087435740567
    275 x276                   1         4.04218777909942
    291 x292                   1         0.0396334351082288
    332 x333                   1         1.03627499814722
    338 x339                   1         3.37287668933815
    430 x431                   1         1.42807813431055
    462 x463                   1                       0
    481 x482                   1         2.63868079283391
    562 x563                   1         2.57016491391397
    692 x693                   1         0.450643999999997
    764 x765                   1         1.46908372975078
    785 x786                   1         0.366016062234934
    861 x862                   1         1.09776989790414
   1053 x1054                  1         8.67433287524048
